TYPE : Vertex Cover
DIMENSION: 40
EDGE_DATA_SECTION:
0 3
0 9
0 24
0 33
0 34
0 35
1 12
1 14
1 18
1 22
1 26
1 30
1 35
2 5
2 9
2 10
2 14
2 17
2 18
2 19
2 21
2 39
3 4
3 5
3 7
3 13
3 18
3 19
3 22
3 25
3 29
3 30
3 35
3 38
3 39
4 7
4 8
4 9
4 22
4 24
4 25
4 28
4 29
4 33
4 36
5 6
5 7
5 9
5 14
5 15
5 19
5 23
5 25
5 26
5 34
5 35
5 36
6 8
6 9
6 11
6 12
6 13
6 19
6 33
6 34
6 35
6 39
7 9
7 16
7 17
7 21
7 22
7 26
7 28
7 32
7 34
7 35
7 38
8 11
8 13
8 14
8 16
8 20
8 32
8 37
9 11
9 14
9 26
9 27
9 28
9 31
9 38
10 22
10 30
11 24
11 25
11 34
12 14
12 24
12 27
12 31
12 33
12 34
12 35
12 36
12 39
13 17
13 22
13 26
13 33
14 22
14 36
15 16
15 24
15 31
15 34
15 35
15 36
16 21
16 26
16 27
16 30
16 32
17 18
17 19
17 23
17 26
17 29
17 34
17 39
18 19
18 21
18 34
18 36
18 37
18 39
19 21
19 30
19 32
19 33
19 34
19 36
19 38
20 21
20 30
20 31
20 34
20 35
21 25
21 26
21 27
21 28
21 30
21 33
21 35
22 27
22 29
22 32
22 39
23 27
23 29
23 38
24 27
24 31
24 32
25 27
25 30
25 33
25 39
26 29
26 35
27 32
27 34
27 35
28 30
28 32
28 38
29 35
29 37
29 38
30 32
30 33
30 36
31 32
31 35
31 36
32 34
32 37
32 38
32 39
33 35
33 38
37 38
-1
VERTEX_DEGREE:
6.0 7.0 9.0 14.0 11.0 14.0 11.0 14.0 9.0 13.0 3.0 6.0 11.0 7.0 8.0 7.0 8.0 10.0 10.0 13.0 6.0 13.0 11.0 5.0 8.0 9.0 10.0 11.0 7.0 9.0 12.0 8.0 14.0 11.0 13.0 15.0 9.0 5.0 10.0 9.0
VERTEX_COVER:
2 3 4 5 6 7 8 9 12 14 15 17 18 19 21 22 24 25 26 27 29 30 31 32 33 34 35 38
EOF
